NAME : u1060.opt.tour
COMMENT : Solution with NN for u1060.tsp (227183)
TYPE : TOUR
DIMENSION : 1060
TOUR_SECTION
1
3
2
5
6
7
8
9
122
123
15
16
14
13
20
19
17
18
105
106
107
104
103
108
98
97
96
95
892
890
891
893
882
881
880
872
871
869
870
873
874
875
876
877
878
879
885
887
886
884
883
889
110
109
111
117
119
118
121
120
116
115
113
112
888
114
132
133
136
135
134
131
130
128
129
124
125
126
127
137
138
139
140
141
142
143
144
145
146
147
148
149
150
151
152
153
154
155
156
165
166
160
158
157
159
161
162
163
164
167
168
169
172
173
174
175
171
170
176
177
178
179
180
181
182
183
184
186
185
187
188
189
190
191
192
193
194
195
199
198
197
196
267
266
265
264
200
259
260
261
262
263
258
257
256
254
255
253
252
250
251
249
248
247
236
235
234
233
232
224
223
222
221
219
218
217
209
208
207
201
202
203
204
205
206
210
211
212
213
214
216
215
867
868
866
865
864
863
862
861
921
922
920
919
918
917
916
915
914
913
912
908
911
910
909
907
905
904
906
903
902
900
901
895
894
896
897
898
899
927
926
925
924
923
851
850
849
848
847
852
855
857
860
858
220
859
856
225
226
227
854
853
229
228
230
231
237
238
239
240
246
245
244
243
840
242
241
842
843
844
846
845
841
839
819
820
821
818
814
815
817
816
317
306
318
319
320
302
305
307
316
308
315
314
313
309
304
303
301
298
300
299
297
296
295
294
293
290
291
292
289
288
287
312
310
311
286
285
284
283
282
281
374
375
373
372
371
370
365
364
366
367
369
368
490
489
488
487
486
485
484
412
411
410
409
408
407
406
388
383
382
381
380
379
378
377
376
384
385
386
387
390
389
276
278
279
280
268
272
271
270
273
269
277
275
274
391
392
393
394
395
396
405
404
397
398
399
400
403
401
402
428
429
430
431
432
433
434
436
437
615
616
614
617
618
624
623
625
627
629
630
631
636
637
638
639
640
646
647
648
649
650
651
652
654
655
656
657
666
665
664
663
658
659
660
653
661
645
662
644
641
642
643
669
668
667
670
635
634
633
632
628
626
622
621
620
619
613
612
610
611
603
602
601
438
435
439
440
443
444
445
446
599
600
604
605
606
607
609
608
671
683
684
685
686
593
592
595
594
596
597
598
451
452
456
457
459
458
450
449
447
448
442
441
427
426
424
425
418
417
416
419
414
415
413
420
421
422
423
464
463
462
461
460
556
555
554
553
552
551
550
529
530
531
528
527
526
479
481
480
475
476
478
477
469
468
465
467
470
466
473
471
472
474
483
482
497
496
495
492
491
493
494
360
359
361
362
363
358
357
356
355
349
354
353
352
350
351
327
326
321
322
323
324
325
330
329
328
345
344
347
346
348
513
512
506
511
510
509
508
507
499
498
502
500
501
505
514
504
503
518
519
520
516
515
517
521
522
523
524
525
532
533
535
534
539
536
537
538
543
544
542
541
540
549
548
547
546
545
738
737
576
575
574
573
572
568
567
566
565
564
563
562
557
561
560
558
559
455
453
454
571
570
569
589
590
591
697
696
695
693
694
687
688
689
690
682
681
680
676
675
674
672
673
677
679
678
716
717
718
719
715
714
713
712
711
710
709
720
721
722
708
707
706
705
704
703
702
691
692
701
699
700
723
724
725
728
729
727
726
698
582
583
584
586
587
588
585
581
580
579
577
578
736
735
734
730
731
732
733
739
740
741
742
743
744
745
746
747
748
749
750
751
752
753
756
757
758
759
755
754
760
761
762
763
764
765
766
767
768
769
770
777
778
776
771
772
773
774
775
779
780
781
784
782
783
785
786
787
788
789
790
791
792
793
794
795
796
798
797
799
800
801
802
803
804
805
343
342
339
340
341
338
337
336
335
333
331
332
334
806
807
813
812
811
810
808
809
825
826
831
832
830
829
828
827
833
834
824
823
822
835
837
836
838
939
937
938
935
936
940
941
942
944
943
967
968
969
966
948
945
946
947
934
933
932
929
931
930
928
953
952
954
951
955
956
950
949
964
965
963
962
961
960
957
959
958
80
79
78
82
81
77
76
75
74
73
72
71
70
69
68
67
993
992
991
990
986
984
980
979
978
977
976
975
971
970
972
973
974
982
981
983
985
987
988
989
994
995
996
997
998
1004
1005
1006
1023
1024
1025
1026
1021
1027
1019
1020
1017
1012
1011
1010
1022
1007
1008
1003
999
1002
1009
1001
1000
1014
1015
1013
1016
1018
1028
1030
1029
64
65
66
63
62
60
61
55
59
58
56
57
1034
1035
1033
1032
1031
1036
1037
1038
1045
1046
1047
1048
1049
1043
1044
1042
1041
1040
1039
37
38
39
54
53
52
51
50
49
46
45
44
43
42
40
41
35
36
34
33
25
24
47
48
83
88
92
89
90
91
93
94
99
102
101
100
87
86
85
84
23
22
21
26
27
32
28
29
12
30
31
11
10
1053
1054
1051
1050
1052
1055
1056
1057
1058
1059
1060
4
-1
EOF